************************************************************************
file with basedata            : cm529_.bas
initial value random generator: 1757131258
************************************************************************
projects                      :  1
jobs (incl. supersource/sink ):  18
horizon                       :  141
RESOURCES
  - renewable                 :  2   R
  - nonrenewable              :  2   N
  - doubly constrained        :  0   D
************************************************************************
PROJECT INFORMATION:
pronr.  #jobs rel.date duedate tardcost  MPM-Time
    1     16      0       16        5       16
************************************************************************
PRECEDENCE RELATIONS:
jobnr.    #modes  #successors   successors
   1        1          3           2   3   4
   2        5          3           8   9  12
   3        5          3           8  13  16
   4        5          3           5   7  14
   5        5          2           6  10
   6        5          3           8   9  13
   7        5          2          10  15
   8        5          1          15
   9        5          3          11  15  16
  10        5          3          11  12  16
  11        5          1          17
  12        5          1          13
  13        5          1          17
  14        5          1          17
  15        5          1          18
  16        5          1          18
  17        5          1          18
  18        1          0        
************************************************************************
REQUESTS/DURATIONS:
jobnr. mode duration  R 1  R 2  N 1  N 2
------------------------------------------------------------------------
  1      1     0       0    0    0    0
  2      1     1       6    9    8    0
         2     2       5    9    8    0
         3     3       4    6    6    0
         4     9       4    5    0    5
         5    10       4    4    5    0
  3      1     1       8    8    8    0
         2     1       7    6    0    8
         3     1       7    7    0    7
         4     6       6    5    8    0
         5     7       6    3    0    5
  4      1     1       6    8    7    0
         2     4       6    7    7    0
         3     5       6    6    0    9
         4     5       6    7    6    0
         5     9       5    5    0   10
  5      1     2       7    2    0    2
         2     3       6    2    0    2
         3     4       4    2   10    0
         4     9       1    2    0    1
         5     9       1    2   10    0
  6      1     4       7    3    0    8
         2     7       5    3    9    0
         3     7       5    3    0    3
         4     9       4    3    9    0
         5    10       1    3    9    0
  7      1     1       4    3    4    0
         2     5       3    2    4    0
         3     8       3    2    0    3
         4     9       3    1    3    0
         5    10       2    1    2    0
  8      1     1       8   10    4    0
         2     8       6    9    0    9
         3     9       6    9    1    0
         4     9       6    9    0    8
         5    10       4    8    0    8
  9      1     2      10    7    0    4
         2     3      10    7    5    0
         3     3      10    7    0    3
         4     4       9    7    8    0
         5     8       9    7    0    1
 10      1     1       7    6    0    7
         2     1       7    6    6    0
         3     3       7    5    0    8
         4     5       6    4    0    6
         5     6       6    3    3    0
 11      1     3       6    9    0    6
         2     5       6    7    0    4
         3     6       6    5    9    0
         4     8       6    5    5    0
         5    10       6    2    0    3
 12      1     4       8    9    9    0
         2     4       8    8    0    6
         3     8       5    8    9    0
         4     9       3    8    0    3
         5     9       4    7    0    5
 13      1     1       8   10    0    3
         2     4       7   10    0    3
         3     4       6   10    8    0
         4     5       5   10    0    3
         5     7       4    9    6    0
 14      1     2       6   10    0    8
         2     2       7    9    0    8
         3     2       6   10    9    0
         4     5       5    8    0    8
         5    10       4    7    0    5
 15      1     3       4   10    0   10
         2     4       4    9    1    0
         3     7       3    9    0   10
         4     9       3    9    0    9
         5    10       3    8    0    8
 16      1     2       6    5   10    0
         2     4       6    4    0    1
         3     5       5    4   10    0
         4     9       5    3    9    0
         5    10       5    3    8    0
 17      1     4       9    2    0    6
         2     4      10    2    4    0
         3     5       7    2    0    6
         4     6       5    1    4    0
         5     6       6    1    3    0
 18      1     0       0    0    0    0
************************************************************************
RESOURCEAVAILABILITIES:
  R 1  R 2  N 1  N 2
   13   13  114   97
************************************************************************
